NAME : X-n115-k10
COMMENT : "Generated by Uchoa, Pecin, Pessoa, Poggi, Subramanian, and Vidal (2013)"
TYPE : CVRP
DIMENSION : 115
EDGE_WEIGHT_TYPE : EUC_2D
CAPACITY : 169
NODE_COORD_SECTION
1 500 500
2 865 693
3 633 220
4 173 361
5 89 714
6 350 102
7 301 24
8 834 663
9 841 997
10 394 790
11 276 488
12 779 312
13 939 66
14 595 462
15 940 964
16 459 459
17 432 280
18 379 338
19 128 439
20 401 22
21 69 887
22 499 657
23 633 46
24 713 182
25 806 525
26 540 169
27 696 559
28 577 888
29 298 725
30 410 644
31 512 889
32 756 352
33 405 407
34 850 365
35 731 588
36 90 553
37 691 383
38 926 631
39 955 351
40 998 736
41 921 854
42 532 257
43 238 513
44 976 912
45 565 912
46 893 74
47 590 548
48 99 355
49 294 39
50 58 429
51 471 573
52 520 109
53 486 611
54 409 682
55 296 843
56 970 479
57 717 390
58 152 711
59 934 255
60 257 539
61 270 31
62 823 409
63 203 849
64 770 627
65 630 581
66 786 186
67 380 300
68 973 847
69 985 975
70 732 465
71 690 428
72 910 568
73 725 539
74 181 186
75 814 694
76 702 927
77 946 492
78 984 305
79 385 696
80 48 323
81 944 440
82 813 293
83 490 676
84 729 923
85 719 883
86 675 637
87 167 14
88 98 159
89 476 709
90 402 339
91 911 734
92 590 230
93 122 698
94 154 418
95 165 998
96 217 599
97 766 21
98 922 407
99 831 607
100 70 494
101 220 740
102 19 855
103 759 507
104 818 409
105 503 304
106 595 827
107 254 282
108 205 607
109 331 57
110 118 404
111 576 658
112 558 611
113 629 732
114 893 182
115 435 1000
PICKUP_AND_DELIVERY_SECTION
1 0 0 1000000000 0 0 0
2 0 0 1000000000 0 0 86
3 0 0 1000000000 0 98 0
4 0 0 1000000000 0 0 89
5 0 0 1000000000 0 91 0
6 0 0 1000000000 0 0 74
7 0 0 1000000000 0 87 0
8 0 0 1000000000 0 0 65
9 0 0 1000000000 0 62 0
10 0 0 1000000000 0 0 60
11 0 0 1000000000 0 99 0
12 0 0 1000000000 0 0 96
13 0 0 1000000000 0 79 0
14 0 0 1000000000 0 0 6
15 0 0 1000000000 0 10 0
16 0 0 1000000000 0 0 3
17 0 0 1000000000 0 8 0
18 0 0 1000000000 0 0 8
19 0 0 1000000000 0 10 0
20 0 0 1000000000 0 0 1
21 0 0 1000000000 0 9 0
22 0 0 1000000000 0 0 6
23 0 0 1000000000 0 4 0
24 0 0 1000000000 0 0 5
25 0 0 1000000000 0 6 0
26 0 0 1000000000 0 0 3
27 0 0 1000000000 0 9 0
28 0 0 1000000000 0 0 7
29 0 0 1000000000 0 7 0
30 0 0 1000000000 0 0 5
31 0 0 1000000000 0 2 0
32 0 0 1000000000 0 0 4
33 0 0 1000000000 0 8 0
34 0 0 1000000000 0 0 8
35 0 0 1000000000 0 1 0
36 0 0 1000000000 0 0 4
37 0 0 1000000000 0 5 0
38 0 0 1000000000 0 0 7
39 0 0 1000000000 0 8 0
40 0 0 1000000000 0 0 9
41 0 0 1000000000 0 1 0
42 0 0 1000000000 0 0 8
43 0 0 1000000000 0 2 0
44 0 0 1000000000 0 0 2
45 0 0 1000000000 0 9 0
46 0 0 1000000000 0 0 7
47 0 0 1000000000 0 8 0
48 0 0 1000000000 0 0 1
49 0 0 1000000000 0 1 0
50 0 0 1000000000 0 0 9
51 0 0 1000000000 0 8 0
52 0 0 1000000000 0 0 4
53 0 0 1000000000 0 7 0
54 0 0 1000000000 0 0 2
55 0 0 1000000000 0 1 0
56 0 0 1000000000 0 0 3
57 0 0 1000000000 0 7 0
58 0 0 1000000000 0 0 10
59 0 0 1000000000 0 2 0
60 0 0 1000000000 0 0 3
61 0 0 1000000000 0 1 0
62 0 0 1000000000 0 0 2
63 0 0 1000000000 0 10 0
64 0 0 1000000000 0 0 1
65 0 0 1000000000 0 4 0
66 0 0 1000000000 0 0 3
67 0 0 1000000000 0 5 0
68 0 0 1000000000 0 0 6
69 0 0 1000000000 0 3 0
70 0 0 1000000000 0 0 1
71 0 0 1000000000 0 9 0
72 0 0 1000000000 0 0 3
73 0 0 1000000000 0 4 0
74 0 0 1000000000 0 0 1
75 0 0 1000000000 0 4 0
76 0 0 1000000000 0 0 5
77 0 0 1000000000 0 1 0
78 0 0 1000000000 0 0 2
79 0 0 1000000000 0 5 0
80 0 0 1000000000 0 0 10
81 0 0 1000000000 0 6 0
82 0 0 1000000000 0 0 1
83 0 0 1000000000 0 6 0
84 0 0 1000000000 0 0 9
85 0 0 1000000000 0 3 0
86 0 0 1000000000 0 0 5
87 0 0 1000000000 0 6 0
88 0 0 1000000000 0 0 6
89 0 0 1000000000 0 10 0
90 0 0 1000000000 0 0 2
91 0 0 1000000000 0 2 0
92 0 0 1000000000 0 0 5
93 0 0 1000000000 0 10 0
94 0 0 1000000000 0 0 10
95 0 0 1000000000 0 5 0
96 0 0 1000000000 0 0 5
97 0 0 1000000000 0 8 0
98 0 0 1000000000 0 0 5
99 0 0 1000000000 0 5 0
100 0 0 1000000000 0 0 8
101 0 0 1000000000 0 5 0
102 0 0 1000000000 0 0 8
103 0 0 1000000000 0 6 0
104 0 0 1000000000 0 0 8
105 0 0 1000000000 0 5 0
106 0 0 1000000000 0 0 4
107 0 0 1000000000 0 10 0
108 0 0 1000000000 0 0 9
109 0 0 1000000000 0 5 0
110 0 0 1000000000 0 0 5
111 0 0 1000000000 0 5 0
112 0 0 1000000000 0 0 3
113 0 0 1000000000 0 8 0
114 0 0 1000000000 0 0 7
115 0 0 1000000000 0 6 0
